\ Model MILP_MixFlow
\ LP format - for model browsing. Use MPS format to capture full model detail.
Maximize
  150 x(0,0) + 170 x(0,1) + 80 x(0,2) + 70 x(0,3) + 50 x(0,4) + 120 x(0,5)
   + 100 x(0,6) + 100 x(0,7) + 140 x(0,8) + 80 x(0,9) + 150 x(0,10)
   + 180 x(0,11) + 100 x(0,12) + 75 x(0,13) + 80 x(0,14) + 150 x(1,0)
   + 170 x(1,1) + 80 x(1,2) + 70 x(1,3) + 50 x(1,4) + 120 x(1,5)
   + 100 x(1,6) + 100 x(1,7) + 140 x(1,8) + 80 x(1,9) + 150 x(1,10)
   + 180 x(1,11) + 100 x(1,12) + 75 x(1,13) + 80 x(1,14) + 150 x(2,0)
   + 170 x(2,1) + 80 x(2,2) + 70 x(2,3) + 50 x(2,4) + 120 x(2,5)
   + 100 x(2,6) + 100 x(2,7) + 140 x(2,8) + 80 x(2,9) + 150 x(2,10)
   + 180 x(2,11) + 100 x(2,12) + 75 x(2,13) + 80 x(2,14) + 150 x(3,0)
   + 170 x(3,1) + 80 x(3,2) + 70 x(3,3) + 50 x(3,4) + 120 x(3,5)
   + 100 x(3,6) + 100 x(3,7) + 140 x(3,8) + 80 x(3,9) + 150 x(3,10)
   + 180 x(3,11) + 100 x(3,12) + 75 x(3,13) + 80 x(3,14) + 150 x(4,0)
   + 170 x(4,1) + 80 x(4,2) + 70 x(4,3) + 50 x(4,4) + 120 x(4,5)
   + 100 x(4,6) + 100 x(4,7) + 140 x(4,8) + 80 x(4,9) + 150 x(4,10)
   + 180 x(4,11) + 100 x(4,12) + 75 x(4,13) + 80 x(4,14) + 150 x(5,0)
   + 170 x(5,1) + 80 x(5,2) + 70 x(5,3) + 50 x(5,4) + 120 x(5,5)
   + 100 x(5,6) + 100 x(5,7) + 140 x(5,8) + 80 x(5,9) + 150 x(5,10)
   + 180 x(5,11) + 100 x(5,12) + 75 x(5,13) + 80 x(5,14) + 150 x(6,0)
   + 170 x(6,1) + 80 x(6,2) + 70 x(6,3) + 50 x(6,4) + 120 x(6,5)
   + 100 x(6,6) + 100 x(6,7) + 140 x(6,8) + 80 x(6,9) + 150 x(6,10)
   + 180 x(6,11) + 100 x(6,12) + 75 x(6,13) + 80 x(6,14) + 150 x(7,0)
   + 170 x(7,1) + 80 x(7,2) + 70 x(7,3) + 50 x(7,4) + 120 x(7,5)
   + 100 x(7,6) + 100 x(7,7) + 140 x(7,8) + 80 x(7,9) + 150 x(7,10)
   + 180 x(7,11) + 100 x(7,12) + 75 x(7,13) + 80 x(7,14) + 150 x(8,0)
   + 170 x(8,1) + 80 x(8,2) + 70 x(8,3) + 50 x(8,4) + 120 x(8,5)
   + 100 x(8,6) + 100 x(8,7) + 140 x(8,8) + 80 x(8,9) + 150 x(8,10)
   + 180 x(8,11) + 100 x(8,12) + 75 x(8,13) + 80 x(8,14) + 150 x(9,0)
   + 170 x(9,1) + 80 x(9,2) + 70 x(9,3) + 50 x(9,4) + 120 x(9,5)
   + 100 x(9,6) + 100 x(9,7) + 140 x(9,8) + 80 x(9,9) + 150 x(9,10)
   + 180 x(9,11) + 100 x(9,12) + 75 x(9,13) + 80 x(9,14) + 150 x(10,0)
   + 170 x(10,1) + 80 x(10,2) + 70 x(10,3) + 50 x(10,4) + 120 x(10,5)
   + 100 x(10,6) + 100 x(10,7) + 140 x(10,8) + 80 x(10,9) + 150 x(10,10)
   + 180 x(10,11) + 100 x(10,12) + 75 x(10,13) + 80 x(10,14) + 150 x(11,0)
   + 170 x(11,1) + 80 x(11,2) + 70 x(11,3) + 50 x(11,4) + 120 x(11,5)
   + 100 x(11,6) + 100 x(11,7) + 140 x(11,8) + 80 x(11,9) + 150 x(11,10)
   + 180 x(11,11) + 100 x(11,12) + 75 x(11,13) + 80 x(11,14) + 150 x(12,0)
   + 170 x(12,1) + 80 x(12,2) + 70 x(12,3) + 50 x(12,4) + 120 x(12,5)
   + 100 x(12,6) + 100 x(12,7) + 140 x(12,8) + 80 x(12,9) + 150 x(12,10)
   + 180 x(12,11) + 100 x(12,12) + 75 x(12,13) + 80 x(12,14) + 150 x(13,0)
   + 170 x(13,1) + 80 x(13,2) + 70 x(13,3) + 50 x(13,4) + 120 x(13,5)
   + 100 x(13,6) + 100 x(13,7) + 140 x(13,8) + 80 x(13,9) + 150 x(13,10)
   + 180 x(13,11) + 100 x(13,12) + 75 x(13,13) + 80 x(13,14) + 150 x(14,0)
   + 170 x(14,1) + 80 x(14,2) + 70 x(14,3) + 50 x(14,4) + 120 x(14,5)
   + 100 x(14,6) + 100 x(14,7) + 140 x(14,8) + 80 x(14,9) + 150 x(14,10)
   + 180 x(14,11) + 100 x(14,12) + 75 x(14,13) + 80 x(14,14)
Subject To
 Capacity(0): x(0,0) + x(0,6) + x(1,0) + x(1,6) + x(2,0) + x(2,6) + x(3,0)
   + x(3,6) + x(4,0) + x(4,6) + x(5,0) + x(5,6) + x(6,0) + x(6,6) + x(7,0)
   + x(7,6) + x(8,0) + x(8,6) + x(9,0) + x(9,6) + x(10,0) + x(10,6)
   + x(11,0) + x(11,6) + x(12,0) + x(12,6) + x(13,0) + x(13,6) + x(14,0)
   + x(14,6) <= 108
 Capacity(1): x(0,9) + x(0,13) + x(1,9) + x(1,13) + x(2,9) + x(2,13)
   + x(3,9) + x(3,13) + x(4,9) + x(4,13) + x(5,9) + x(5,13) + x(6,9)
   + x(6,13) + x(7,9) + x(7,13) + x(8,9) + x(8,13) + x(9,9) + x(9,13)
   + x(10,9) + x(10,13) + x(11,9) + x(11,13) + x(12,9) + x(12,13) + x(13,9)
   + x(13,13) + x(14,9) + x(14,13) <= 144
 Capacity(2): x(0,4) + x(0,6) + x(0,10) + x(1,4) + x(1,6) + x(1,10)
   + x(2,4) + x(2,6) + x(2,10) + x(3,4) + x(3,6) + x(3,10) + x(4,4)
   + x(4,6) + x(4,10) + x(5,4) + x(5,6) + x(5,10) + x(6,4) + x(6,6)
   + x(6,10) + x(7,4) + x(7,6) + x(7,10) + x(8,4) + x(8,6) + x(8,10)
   + x(9,4) + x(9,6) + x(9,10) + x(10,4) + x(10,6) + x(10,10) + x(11,4)
   + x(11,6) + x(11,10) + x(12,4) + x(12,6) + x(12,10) + x(13,4) + x(13,6)
   + x(13,10) + x(14,4) + x(14,6) + x(14,10) <= 144
 Capacity(3): x(0,1) + x(0,7) + x(1,1) + x(1,7) + x(2,1) + x(2,7) + x(3,1)
   + x(3,7) + x(4,1) + x(4,7) + x(5,1) + x(5,7) + x(6,1) + x(6,7) + x(7,1)
   + x(7,7) + x(8,1) + x(8,7) + x(9,1) + x(9,7) + x(10,1) + x(10,7)
   + x(11,1) + x(11,7) + x(12,1) + x(12,7) + x(13,1) + x(13,7) + x(14,1)
   + x(14,7) <= 108
 Capacity(4): x(0,2) + x(0,9) + x(0,12) + x(1,2) + x(1,9) + x(1,12)
   + x(2,2) + x(2,9) + x(2,12) + x(3,2) + x(3,9) + x(3,12) + x(4,2)
   + x(4,9) + x(4,12) + x(5,2) + x(5,9) + x(5,12) + x(6,2) + x(6,9)
   + x(6,12) + x(7,2) + x(7,9) + x(7,12) + x(8,2) + x(8,9) + x(8,12)
   + x(9,2) + x(9,9) + x(9,12) + x(10,2) + x(10,9) + x(10,12) + x(11,2)
   + x(11,9) + x(11,12) + x(12,2) + x(12,9) + x(12,12) + x(13,2) + x(13,9)
   + x(13,12) + x(14,2) + x(14,9) + x(14,12) <= 108
 Capacity(5): x(0,4) + x(0,8) + x(1,4) + x(1,8) + x(2,4) + x(2,8) + x(3,4)
   + x(3,8) + x(4,4) + x(4,8) + x(5,4) + x(5,8) + x(6,4) + x(6,8) + x(7,4)
   + x(7,8) + x(8,4) + x(8,8) + x(9,4) + x(9,8) + x(10,4) + x(10,8)
   + x(11,4) + x(11,8) + x(12,4) + x(12,8) + x(13,4) + x(13,8) + x(14,4)
   + x(14,8) <= 108
 Capacity(6): x(0,14) + x(1,14) + x(2,14) + x(3,14) + x(4,14) + x(5,14)
   + x(6,14) + x(7,14) + x(8,14) + x(9,14) + x(10,14) + x(11,14) + x(12,14)
   + x(13,14) + x(14,14) <= 144
 Capacity(7): x(0,3) + x(1,3) + x(2,3) + x(3,3) + x(4,3) + x(5,3) + x(6,3)
   + x(7,3) + x(8,3) + x(9,3) + x(10,3) + x(11,3) + x(12,3) + x(13,3)
   + x(14,3) <= 108
 Capacity(8): x(0,7) + x(0,11) + x(1,7) + x(1,11) + x(2,7) + x(2,11)
   + x(3,7) + x(3,11) + x(4,7) + x(4,11) + x(5,7) + x(5,11) + x(6,7)
   + x(6,11) + x(7,7) + x(7,11) + x(8,7) + x(8,11) + x(9,7) + x(9,11)
   + x(10,7) + x(10,11) + x(11,7) + x(11,11) + x(12,7) + x(12,11) + x(13,7)
   + x(13,11) + x(14,7) + x(14,11) <= 108
 Capacity(9): x(0,5) + x(0,12) + x(1,5) + x(1,12) + x(2,5) + x(2,12)
   + x(3,5) + x(3,12) + x(4,5) + x(4,12) + x(5,5) + x(5,12) + x(6,5)
   + x(6,12) + x(7,5) + x(7,12) + x(8,5) + x(8,12) + x(9,5) + x(9,12)
   + x(10,5) + x(10,12) + x(11,5) + x(11,12) + x(12,5) + x(12,12) + x(13,5)
   + x(13,12) + x(14,5) + x(14,12) <= 108
 ucDemand0: 3.333333333333333 x(0,1) <= 90
 ucDemand1: 10 x(1,0) <= 120
 ucDemand2: 5 x(2,3) + 20 x(2,4) <= 70
 ucDemand3: 10 x(3,2) + 10 x(3,4) <= 100
 ucDemand4: <= 50
 ucDemand5: 3.333333333333333 x(5,6) + 20 x(5,7) <= 120
 ucDemand6: 10 x(6,7) <= 80
 ucDemand7: <= 70
 ucDemand8: 5 x(8,9) <= 140
 ucDemand9: 10 x(9,8) <= 125
 ucDemand10: 2.5 x(10,11) + 10 x(10,12) <= 50
 ucDemand11: 10 x(11,10) + 6.666666666666667 x(11,12) <= 180
 ucDemand12: <= 30
 ucDemand13: 5 x(13,14) <= 75
 ucDemand14: 10 x(14,13) <= 80
Bounds
Generals
 x(0,0) x(0,1) x(0,2) x(0,3) x(0,4) x(0,5) x(0,6) x(0,7) x(0,8) x(0,9)
 x(0,10) x(0,11) x(0,12) x(0,13) x(0,14) x(1,0) x(1,1) x(1,2) x(1,3) x(1,4)
 x(1,5) x(1,6) x(1,7) x(1,8) x(1,9) x(1,10) x(1,11) x(1,12) x(1,13) x(1,14)
 x(2,0) x(2,1) x(2,2) x(2,3) x(2,4) x(2,5) x(2,6) x(2,7) x(2,8) x(2,9)
 x(2,10) x(2,11) x(2,12) x(2,13) x(2,14) x(3,0) x(3,1) x(3,2) x(3,3) x(3,4)
 x(3,5) x(3,6) x(3,7) x(3,8) x(3,9) x(3,10) x(3,11) x(3,12) x(3,13) x(3,14)
 x(4,0) x(4,1) x(4,2) x(4,3) x(4,4) x(4,5) x(4,6) x(4,7) x(4,8) x(4,9)
 x(4,10) x(4,11) x(4,12) x(4,13) x(4,14) x(5,0) x(5,1) x(5,2) x(5,3) x(5,4)
 x(5,5) x(5,6) x(5,7) x(5,8) x(5,9) x(5,10) x(5,11) x(5,12) x(5,13) x(5,14)
 x(6,0) x(6,1) x(6,2) x(6,3) x(6,4) x(6,5) x(6,6) x(6,7) x(6,8) x(6,9)
 x(6,10) x(6,11) x(6,12) x(6,13) x(6,14) x(7,0) x(7,1) x(7,2) x(7,3) x(7,4)
 x(7,5) x(7,6) x(7,7) x(7,8) x(7,9) x(7,10) x(7,11) x(7,12) x(7,13) x(7,14)
 x(8,0) x(8,1) x(8,2) x(8,3) x(8,4) x(8,5) x(8,6) x(8,7) x(8,8) x(8,9)
 x(8,10) x(8,11) x(8,12) x(8,13) x(8,14) x(9,0) x(9,1) x(9,2) x(9,3) x(9,4)
 x(9,5) x(9,6) x(9,7) x(9,8) x(9,9) x(9,10) x(9,11) x(9,12) x(9,13) x(9,14)
 x(10,0) x(10,1) x(10,2) x(10,3) x(10,4) x(10,5) x(10,6) x(10,7) x(10,8)
 x(10,9) x(10,10) x(10,11) x(10,12) x(10,13) x(10,14) x(11,0) x(11,1)
 x(11,2) x(11,3) x(11,4) x(11,5) x(11,6) x(11,7) x(11,8) x(11,9) x(11,10)
 x(11,11) x(11,12) x(11,13) x(11,14) x(12,0) x(12,1) x(12,2) x(12,3)
 x(12,4) x(12,5) x(12,6) x(12,7) x(12,8) x(12,9) x(12,10) x(12,11) x(12,12)
 x(12,13) x(12,14) x(13,0) x(13,1) x(13,2) x(13,3) x(13,4) x(13,5) x(13,6)
 x(13,7) x(13,8) x(13,9) x(13,10) x(13,11) x(13,12) x(13,13) x(13,14)
 x(14,0) x(14,1) x(14,2) x(14,3) x(14,4) x(14,5) x(14,6) x(14,7) x(14,8)
 x(14,9) x(14,10) x(14,11) x(14,12) x(14,13) x(14,14)
End
